(set-info :smt-lib-version 2.6)
(set-logic QF_NIA)
(set-info :source |
Generated by: Cristina Borralleras, Daniel Larraz, Albert Oliveras, Enric Rodriguez-Carbonell, Albert Rubio
Generated on: 2017-04-27
Generator: VeryMax
Application: Termination proving
Target solver: barcelogic
|)
(set-info :license "https://creativecommons.org/licenses/by/4.0/")
(set-info :category "industrial")
(set-info :status sat)
(declare-fun Nl2arg11 () Int)
(declare-fun Nl2arg21 () Int)
(declare-fun Nl2arg31 () Int)
(declare-fun Nl2arg12 () Int)
(declare-fun Nl2arg22 () Int)
(declare-fun Nl2arg32 () Int)
(declare-fun Nl2arg13 () Int)
(declare-fun Nl2arg23 () Int)
(declare-fun Nl2arg33 () Int)
(declare-fun lam0n0 () Int)
(declare-fun lam0n1 () Int)
(declare-fun lam0n2 () Int)
(declare-fun lam0n3 () Int)
(declare-fun lam0n4 () Int)
(declare-fun lam0n5 () Int)
(declare-fun lam0n6 () Int)
(declare-fun lam0n7 () Int)
(declare-fun lam0n8 () Int)
(declare-fun lam0n9 () Int)
(declare-fun lam0n10 () Int)
(declare-fun lam0n11 () Int)
(declare-fun lam0n12 () Int)
(declare-fun lam0n13 () Int)
(declare-fun lam0n14 () Int)
(declare-fun lam0n15 () Int)
(declare-fun lam0n16 () Int)
(declare-fun lam0n17 () Int)
(declare-fun lam0n18 () Int)
(declare-fun UndefCntr0_CT () Int)
(declare-fun Nl2CT1 () Int)
(declare-fun Nl2CT2 () Int)
(declare-fun Nl2CT3 () Int)
(declare-fun UndefCntr0_arg1 () Int)
(declare-fun UndefCntr0_arg2 () Int)
(declare-fun UndefCntr0_arg3 () Int)
(declare-fun UndefCntr0_undef17 () Int)
(declare-fun UndefCntr0_undef18 () Int)
(declare-fun UndefCntr0_undef19 () Int)
(declare-fun UndefCntr0_undef24 () Int)
(declare-fun lam1n0 () Int)
(declare-fun lam1n1 () Int)
(declare-fun lam1n2 () Int)
(declare-fun lam1n3 () Int)
(declare-fun lam1n4 () Int)
(declare-fun lam1n5 () Int)
(declare-fun lam1n6 () Int)
(declare-fun lam1n7 () Int)
(declare-fun lam1n8 () Int)
(declare-fun lam1n9 () Int)
(declare-fun lam1n10 () Int)
(declare-fun lam1n11 () Int)
(declare-fun lam1n12 () Int)
(declare-fun lam1n13 () Int)
(declare-fun lam1n14 () Int)
(declare-fun lam1n15 () Int)
(declare-fun lam1n16 () Int)
(declare-fun lam1n17 () Int)
(declare-fun lam1n18 () Int)
(declare-fun lam2n0 () Int)
(declare-fun lam2n1 () Int)
(declare-fun lam2n2 () Int)
(declare-fun lam2n3 () Int)
(declare-fun lam2n4 () Int)
(declare-fun lam2n5 () Int)
(declare-fun lam2n6 () Int)
(declare-fun lam2n7 () Int)
(declare-fun lam2n8 () Int)
(declare-fun lam2n9 () Int)
(declare-fun lam2n10 () Int)
(declare-fun lam2n11 () Int)
(declare-fun lam2n12 () Int)
(declare-fun lam2n13 () Int)
(declare-fun lam2n14 () Int)
(declare-fun lam2n15 () Int)
(declare-fun lam2n16 () Int)
(declare-fun lam2n17 () Int)
(declare-fun lam2n18 () Int)
(declare-fun lam3n0 () Int)
(declare-fun lam3n1 () Int)
(declare-fun lam3n2 () Int)
(declare-fun lam3n3 () Int)
(declare-fun lam3n4 () Int)
(declare-fun lam3n5 () Int)
(declare-fun lam3n6 () Int)
(declare-fun lam3n7 () Int)
(declare-fun lam3n8 () Int)
(declare-fun lam3n9 () Int)
(declare-fun lam3n10 () Int)
(declare-fun lam3n11 () Int)
(declare-fun lam3n12 () Int)
(declare-fun lam3n13 () Int)
(declare-fun lam3n14 () Int)
(declare-fun lam3n15 () Int)
(declare-fun lam3n16 () Int)
(declare-fun lam3n17 () Int)
(declare-fun lam3n18 () Int)
(declare-fun lam4n0 () Int)
(declare-fun lam4n1 () Int)
(declare-fun lam4n2 () Int)
(declare-fun lam4n3 () Int)
(declare-fun lam4n4 () Int)
(declare-fun lam4n5 () Int)
(declare-fun lam4n6 () Int)
(declare-fun lam5n0 () Int)
(declare-fun lam5n1 () Int)
(declare-fun lam5n2 () Int)
(declare-fun lam5n3 () Int)
(declare-fun lam5n4 () Int)
(declare-fun lam5n5 () Int)
(declare-fun lam5n6 () Int)
(declare-fun lam6n0 () Int)
(declare-fun lam6n1 () Int)
(declare-fun lam6n2 () Int)
(declare-fun lam6n3 () Int)
(declare-fun lam6n4 () Int)
(declare-fun lam6n5 () Int)
(declare-fun lam6n6 () Int)
(declare-fun undef1 () Int)
(declare-fun undef170 () Int)
(declare-fun undef171 () Int)
(declare-fun arg1 () Int)
(declare-fun arg2 () Int)
(declare-fun arg3 () Int)
(declare-fun FV_arg1_1 () Int)
(declare-fun FV_arg2_1 () Int)
(declare-fun FV_arg3_1 () Int)
(declare-fun lam7n0 () Int)
(declare-fun lam7n1 () Int)
(declare-fun lam7n2 () Int)
(declare-fun lam7n3 () Int)
(declare-fun lam7n4 () Int)
(declare-fun lam7n5 () Int)
(declare-fun lam7n6 () Int)
(declare-fun lam7n7 () Int)
(declare-fun lam7n8 () Int)
(declare-fun lam7n9 () Int)
(declare-fun lam7n10 () Int)
(declare-fun lam7n11 () Int)
(declare-fun lam7n12 () Int)
(declare-fun lam7n13 () Int)
(declare-fun lam8n0 () Int)
(declare-fun lam8n1 () Int)
(declare-fun lam8n2 () Int)
(declare-fun lam8n3 () Int)
(declare-fun lam8n4 () Int)
(declare-fun lam8n5 () Int)
(declare-fun lam8n6 () Int)
(declare-fun lam8n7 () Int)
(declare-fun lam8n8 () Int)
(declare-fun lam8n9 () Int)
(declare-fun lam8n10 () Int)
(declare-fun lam8n11 () Int)
(declare-fun lam8n12 () Int)
(declare-fun lam8n13 () Int)
(declare-fun UndefDef0undef17_CT () Int)
(declare-fun UndefDef0undef17_arg1 () Int)
(declare-fun UndefDef0undef17_arg2 () Int)
(declare-fun UndefDef0undef17_arg3 () Int)
(declare-fun lam9n0 () Int)
(declare-fun lam9n1 () Int)
(declare-fun lam9n2 () Int)
(declare-fun lam9n3 () Int)
(declare-fun lam9n4 () Int)
(declare-fun lam9n5 () Int)
(declare-fun lam9n6 () Int)
(declare-fun lam9n7 () Int)
(declare-fun lam9n8 () Int)
(declare-fun lam9n9 () Int)
(declare-fun lam9n10 () Int)
(declare-fun lam9n11 () Int)
(declare-fun lam9n12 () Int)
(declare-fun lam9n13 () Int)
(declare-fun UndefDef0undef24_CT () Int)
(declare-fun UndefDef0undef24_arg1 () Int)
(declare-fun UndefDef0undef24_arg2 () Int)
(declare-fun UndefDef0undef24_arg3 () Int)
(declare-fun lam10n0 () Int)
(declare-fun lam10n1 () Int)
(declare-fun lam10n2 () Int)
(declare-fun lam10n3 () Int)
(declare-fun lam10n4 () Int)
(declare-fun lam10n5 () Int)
(declare-fun lam10n6 () Int)
(declare-fun lam10n7 () Int)
(declare-fun lam10n8 () Int)
(declare-fun lam10n9 () Int)
(declare-fun lam10n10 () Int)
(declare-fun lam10n11 () Int)
(declare-fun lam10n12 () Int)
(declare-fun lam10n13 () Int)
(declare-fun lam11n0 () Int)
(declare-fun lam11n1 () Int)
(declare-fun lam11n2 () Int)
(declare-fun lam11n3 () Int)
(declare-fun lam11n4 () Int)
(declare-fun lam11n5 () Int)
(declare-fun lam11n6 () Int)
(declare-fun lam11n7 () Int)
(declare-fun lam11n8 () Int)
(declare-fun lam11n9 () Int)
(declare-fun lam11n10 () Int)
(declare-fun lam11n11 () Int)
(declare-fun lam11n12 () Int)
(declare-fun lam11n13 () Int)
(declare-fun lam12n0 () Int)
(declare-fun lam12n1 () Int)
(declare-fun lam12n2 () Int)
(declare-fun lam12n3 () Int)
(declare-fun lam12n4 () Int)
(declare-fun lam12n5 () Int)
(declare-fun lam12n6 () Int)
(declare-fun lam12n7 () Int)
(declare-fun lam12n8 () Int)
(declare-fun lam12n9 () Int)
(declare-fun lam12n10 () Int)
(declare-fun lam12n11 () Int)
(declare-fun lam12n12 () Int)
(declare-fun lam12n13 () Int)
(declare-fun FV_undef18_0 () Int)
(declare-fun FV_undef19_0 () Int)
(declare-fun FV_arg1_0 () Int)
(declare-fun FV_arg2_0 () Int)
(declare-fun FV_arg3_0 () Int)
(declare-fun FV_undef17_0 () Int)
(declare-fun FV_undef24_0 () Int)
(declare-fun lam13n0 () Int)
(declare-fun lam13n1 () Int)
(declare-fun lam13n2 () Int)
(declare-fun lam13n3 () Int)
(declare-fun lam13n4 () Int)
(declare-fun lam13n5 () Int)
(declare-fun lam13n6 () Int)
(declare-fun lam13n7 () Int)
(declare-fun lam14n0 () Int)
(declare-fun lam14n1 () Int)
(declare-fun lam14n2 () Int)
(declare-fun lam14n3 () Int)
(declare-fun lam14n4 () Int)
(declare-fun lam14n5 () Int)
(declare-fun lam14n6 () Int)
(declare-fun lam14n7 () Int)
(declare-fun lam14n8 () Int)
(declare-fun lam15n0 () Int)
(declare-fun lam15n1 () Int)
(declare-fun lam15n2 () Int)
(declare-fun lam15n3 () Int)
(declare-fun lam15n4 () Int)
(declare-fun lam15n5 () Int)
(declare-fun lam15n6 () Int)
(declare-fun lam16n0 () Int)
(declare-fun lam16n1 () Int)
(declare-fun lam16n2 () Int)
(declare-fun lam16n3 () Int)
(declare-fun lam16n4 () Int)
(declare-fun lam16n5 () Int)
(declare-fun lam16n6 () Int)
(declare-fun lam16n7 () Int)
(declare-fun lam16n8 () Int)
(declare-fun lam17n0 () Int)
(declare-fun lam17n1 () Int)
(declare-fun lam17n2 () Int)
(declare-fun lam17n3 () Int)
(declare-fun lam17n4 () Int)
(declare-fun lam17n5 () Int)
(declare-fun lam17n6 () Int)
(declare-fun lam18n0 () Int)
(declare-fun lam18n1 () Int)
(declare-fun lam18n2 () Int)
(declare-fun lam18n3 () Int)
(declare-fun lam18n4 () Int)
(declare-fun lam18n5 () Int)
(declare-fun lam18n6 () Int)
(declare-fun lam18n7 () Int)
(declare-fun lam19n0 () Int)
(declare-fun lam19n1 () Int)
(declare-fun lam19n2 () Int)
(declare-fun lam19n3 () Int)
(declare-fun lam19n4 () Int)
(declare-fun lam19n5 () Int)
(declare-fun lam19n6 () Int)
(declare-fun lam19n7 () Int)
(declare-fun lam19n8 () Int)
(declare-fun lam20n0 () Int)
(declare-fun lam20n1 () Int)
(declare-fun lam20n2 () Int)
(declare-fun lam20n3 () Int)
(declare-fun lam20n4 () Int)
(declare-fun lam20n5 () Int)
(declare-fun lam20n6 () Int)
(declare-fun lam21n0 () Int)
(declare-fun lam21n1 () Int)
(declare-fun lam21n2 () Int)
(declare-fun lam21n3 () Int)
(declare-fun lam21n4 () Int)
(declare-fun lam21n5 () Int)
(declare-fun lam21n6 () Int)
(declare-fun lam21n7 () Int)
(declare-fun lam22n0 () Int)
(declare-fun lam22n1 () Int)
(declare-fun lam22n2 () Int)
(declare-fun lam22n3 () Int)
(declare-fun lam22n4 () Int)
(declare-fun lam22n5 () Int)
(declare-fun lam22n6 () Int)
(declare-fun FV_arg1_2 () Int)
(declare-fun FV_arg2_2 () Int)
(declare-fun FV_arg3_2 () Int)
(declare-fun FV_undef17_2 () Int)
(declare-fun FV_undef24_2 () Int)
(declare-fun FV_undef19_2 () Int)
(declare-fun FV_undef18_2 () Int)
(assert ( and ( <= ( - 1 ) Nl2arg11 ) ( <= Nl2arg11 1 ) ( <= ( - 1 ) Nl2arg21 ) ( <= Nl2arg21 1 ) ( <= ( - 1 ) Nl2arg31 ) ( <= Nl2arg31 1 ) ( <= ( - 1 ) Nl2arg12 ) ( <= Nl2arg12 1 ) ( <= ( - 1 ) Nl2arg22 ) ( <= Nl2arg22 1 ) ( <= ( - 1 ) Nl2arg32 ) ( <= Nl2arg32 1 ) ( <= ( - 1 ) Nl2arg13 ) ( <= Nl2arg13 1 ) ( <= ( - 1 ) Nl2arg23 ) ( <= Nl2arg23 1 ) ( <= ( - 1 ) Nl2arg33 ) ( <= Nl2arg33 1 ) ))
(assert ( or ( and ( >= lam0n0 0 ) ( >= lam0n1 0 ) ( >= lam0n2 0 ) ( >= lam0n3 0 ) ( >= lam0n4 0 ) ( >= lam0n5 0 ) ( >= lam0n6 0 ) ( >= lam0n7 0 ) ( >= lam0n8 0 ) ( >= lam0n9 0 ) ( >= lam0n10 0 ) ( >= lam0n11 0 ) ( >= lam0n12 0 ) ( >= lam0n13 0 ) ( >= lam0n14 0 ) ( >= lam0n15 0 ) ( >= lam0n16 0 ) ( >= lam0n17 0 ) ( >= lam0n18 0 ) ( > ( + ( * 1 lam0n0 ) ( * 1 lam0n1 ) ( * 1 lam0n2 ) ( * 1 lam0n3 ) ( * 1 lam0n4 ) ( * 1 lam0n5 ) ( * ( - 1 ) lam0n6 ) ( * 50001 lam0n10 ) ( * 50001 lam0n11 ) ( * 50001 lam0n12 ) ( * 50001 lam0n13 ) ( * 50001 lam0n14 ) ( * UndefCntr0_CT lam0n15 ) ( * Nl2CT1 lam0n16 ) ( * Nl2CT2 lam0n17 ) ( * Nl2CT3 lam0n18 ) ( - 1 ) ) 0 ) ( = ( + ( * ( - 1 ) lam0n0 ) ( * ( - 1 ) lam0n1 ) ( * UndefCntr0_arg1 lam0n15 ) ( * Nl2arg11 lam0n16 ) ( * Nl2arg12 lam0n17 ) ( * Nl2arg13 lam0n18 ) ) 0 ) ( = ( + ( * ( - 1 ) lam0n1 ) ( * 1 lam0n2 ) ( * 1 lam0n3 ) ( * 1 lam0n6 ) ( * ( - 1 ) lam0n7 ) ( * 1 lam0n10 ) ( * ( - 1 ) lam0n11 ) ( * ( - 1 ) lam0n12 ) ( * ( - 2 ) lam0n13 ) ( * UndefCntr0_arg2 lam0n15 ) ( * Nl2arg21 lam0n16 ) ( * Nl2arg22 lam0n17 ) ( * Nl2arg23 lam0n18 ) ) 0 ) ( = ( + ( * 1 lam0n4 ) ( * ( - 1 ) lam0n6 ) ( * 1 lam0n7 ) ( * ( - 2 ) lam0n10 ) ( * ( - 1 ) lam0n12 ) ( * 1 lam0n13 ) ( * ( - 1 ) lam0n14 ) ( * UndefCntr0_arg3 lam0n15 ) ( * Nl2arg31 lam0n16 ) ( * Nl2arg32 lam0n17 ) ( * Nl2arg33 lam0n18 ) ) 0 ) ( = ( + ( * ( - 1 ) lam0n2 ) ( * ( - 1 ) lam0n4 ) ( * ( - 1 ) lam0n8 ) ( * UndefCntr0_undef17 lam0n15 ) ) 0 ) ( = ( + ( * ( - 1 ) lam0n9 ) ( * UndefCntr0_undef18 lam0n15 ) ) 0 ) ( = ( + ( * ( - 1 ) lam0n5 ) ( * UndefCntr0_undef19 lam0n15 ) ) 0 ) ( = ( + ( * ( - 1 ) lam0n3 ) ( * UndefCntr0_undef24 lam0n15 ) ) 0 ) ) ( and ( >= lam1n0 0 ) ( >= lam1n1 0 ) ( >= lam1n2 0 ) ( >= lam1n3 0 ) ( >= lam1n4 0 ) ( >= lam1n5 0 ) ( >= lam1n6 0 ) ( >= lam1n7 0 ) ( >= lam1n8 0 ) ( >= lam1n9 0 ) ( >= lam1n10 0 ) ( >= lam1n11 0 ) ( >= lam1n12 0 ) ( >= lam1n13 0 ) ( >= lam1n14 0 ) ( >= lam1n15 0 ) ( >= lam1n16 0 ) ( >= lam1n17 0 ) ( >= lam1n18 0 ) ( > ( + ( * 1 lam1n0 ) ( * 1 lam1n1 ) ( * 1 lam1n2 ) ( * 1 lam1n3 ) ( * 1 lam1n4 ) ( * 1 lam1n5 ) ( * ( - 1 ) lam1n6 ) ( * 50001 lam1n10 ) ( * 50001 lam1n11 ) ( * 50001 lam1n12 ) ( * 50001 lam1n13 ) ( * 50001 lam1n14 ) ( * UndefCntr0_CT lam1n15 ) ( * Nl2CT1 lam1n16 ) ( * Nl2CT2 lam1n17 ) ( * Nl2CT3 lam1n18 ) ( - 1 ( + ( + ( + Nl2CT1 ( * Nl2arg11 0 ) ) ( * Nl2arg21 1 ) ) ( * Nl2arg31 1 ) ) ) ) 0 ) ( = ( + ( * ( - 1 ) lam1n0 ) ( * ( - 1 ) lam1n1 ) ( * UndefCntr0_arg1 lam1n15 ) ( * Nl2arg11 lam1n16 ) ( * Nl2arg12 lam1n17 ) ( * Nl2arg13 lam1n18 ) ) 0 ) ( = ( + ( * ( - 1 ) lam1n1 ) ( * 1 lam1n2 ) ( * 1 lam1n3 ) ( * 1 lam1n6 ) ( * ( - 1 ) lam1n7 ) ( * 1 lam1n10 ) ( * ( - 1 ) lam1n11 ) ( * ( - 1 ) lam1n12 ) ( * ( - 2 ) lam1n13 ) ( * UndefCntr0_arg2 lam1n15 ) ( * Nl2arg21 lam1n16 ) ( * Nl2arg22 lam1n17 ) ( * Nl2arg23 lam1n18 ) ( - ( + 0 ( * Nl2arg21 1 ) ) ) ) 0 ) ( = ( + ( * 1 lam1n4 ) ( * ( - 1 ) lam1n6 ) ( * 1 lam1n7 ) ( * ( - 2 ) lam1n10 ) ( * ( - 1 ) lam1n12 ) ( * 1 lam1n13 ) ( * ( - 1 ) lam1n14 ) ( * UndefCntr0_arg3 lam1n15 ) ( * Nl2arg31 lam1n16 ) ( * Nl2arg32 lam1n17 ) ( * Nl2arg33 lam1n18 ) ( - ( + 0 ( * Nl2arg31 1 ) ) ) ) 0 ) ( = ( + ( * ( - 1 ) lam1n2 ) ( * ( - 1 ) lam1n4 ) ( * ( - 1 ) lam1n8 ) ( * UndefCntr0_undef17 lam1n15 ) ) 0 ) ( = ( + ( * ( - 1 ) lam1n9 ) ( * UndefCntr0_undef18 lam1n15 ) ) 0 ) ( = ( + ( * ( - 1 ) lam1n5 ) ( * UndefCntr0_undef19 lam1n15 ) ( - ( + 0 ( * Nl2arg11 1 ) ) ) ) 0 ) ( = ( + ( * ( - 1 ) lam1n3 ) ( * UndefCntr0_undef24 lam1n15 ) ) 0 ) ) ))
(assert ( or ( and ( >= lam0n0 0 ) ( >= lam0n1 0 ) ( >= lam0n2 0 ) ( >= lam0n3 0 ) ( >= lam0n4 0 ) ( >= lam0n5 0 ) ( >= lam0n6 0 ) ( >= lam0n7 0 ) ( >= lam0n8 0 ) ( >= lam0n9 0 ) ( >= lam0n10 0 ) ( >= lam0n11 0 ) ( >= lam0n12 0 ) ( >= lam0n13 0 ) ( >= lam0n14 0 ) ( >= lam0n15 0 ) ( >= lam0n16 0 ) ( >= lam0n17 0 ) ( >= lam0n18 0 ) ( > ( + ( * 1 lam0n0 ) ( * 1 lam0n1 ) ( * 1 lam0n2 ) ( * 1 lam0n3 ) ( * 1 lam0n4 ) ( * 1 lam0n5 ) ( * ( - 1 ) lam0n6 ) ( * 50001 lam0n10 ) ( * 50001 lam0n11 ) ( * 50001 lam0n12 ) ( * 50001 lam0n13 ) ( * 50001 lam0n14 ) ( * UndefCntr0_CT lam0n15 ) ( * Nl2CT1 lam0n16 ) ( * Nl2CT2 lam0n17 ) ( * Nl2CT3 lam0n18 ) ( - 1 ) ) 0 ) ( = ( + ( * ( - 1 ) lam0n0 ) ( * ( - 1 ) lam0n1 ) ( * UndefCntr0_arg1 lam0n15 ) ( * Nl2arg11 lam0n16 ) ( * Nl2arg12 lam0n17 ) ( * Nl2arg13 lam0n18 ) ) 0 ) ( = ( + ( * ( - 1 ) lam0n1 ) ( * 1 lam0n2 ) ( * 1 lam0n3 ) ( * 1 lam0n6 ) ( * ( - 1 ) lam0n7 ) ( * 1 lam0n10 ) ( * ( - 1 ) lam0n11 ) ( * ( - 1 ) lam0n12 ) ( * ( - 2 ) lam0n13 ) ( * UndefCntr0_arg2 lam0n15 ) ( * Nl2arg21 lam0n16 ) ( * Nl2arg22 lam0n17 ) ( * Nl2arg23 lam0n18 ) ) 0 ) ( = ( + ( * 1 lam0n4 ) ( * ( - 1 ) lam0n6 ) ( * 1 lam0n7 ) ( * ( - 2 ) lam0n10 ) ( * ( - 1 ) lam0n12 ) ( * 1 lam0n13 ) ( * ( - 1 ) lam0n14 ) ( * UndefCntr0_arg3 lam0n15 ) ( * Nl2arg31 lam0n16 ) ( * Nl2arg32 lam0n17 ) ( * Nl2arg33 lam0n18 ) ) 0 ) ( = ( + ( * ( - 1 ) lam0n2 ) ( * ( - 1 ) lam0n4 ) ( * ( - 1 ) lam0n8 ) ( * UndefCntr0_undef17 lam0n15 ) ) 0 ) ( = ( + ( * ( - 1 ) lam0n9 ) ( * UndefCntr0_undef18 lam0n15 ) ) 0 ) ( = ( + ( * ( - 1 ) lam0n5 ) ( * UndefCntr0_undef19 lam0n15 ) ) 0 ) ( = ( + ( * ( - 1 ) lam0n3 ) ( * UndefCntr0_undef24 lam0n15 ) ) 0 ) ) ( and ( >= lam2n0 0 ) ( >= lam2n1 0 ) ( >= lam2n2 0 ) ( >= lam2n3 0 ) ( >= lam2n4 0 ) ( >= lam2n5 0 ) ( >= lam2n6 0 ) ( >= lam2n7 0 ) ( >= lam2n8 0 ) ( >= lam2n9 0 ) ( >= lam2n10 0 ) ( >= lam2n11 0 ) ( >= lam2n12 0 ) ( >= lam2n13 0 ) ( >= lam2n14 0 ) ( >= lam2n15 0 ) ( >= lam2n16 0 ) ( >= lam2n17 0 ) ( >= lam2n18 0 ) ( > ( + ( * 1 lam2n0 ) ( * 1 lam2n1 ) ( * 1 lam2n2 ) ( * 1 lam2n3 ) ( * 1 lam2n4 ) ( * 1 lam2n5 ) ( * ( - 1 ) lam2n6 ) ( * 50001 lam2n10 ) ( * 50001 lam2n11 ) ( * 50001 lam2n12 ) ( * 50001 lam2n13 ) ( * 50001 lam2n14 ) ( * UndefCntr0_CT lam2n15 ) ( * Nl2CT1 lam2n16 ) ( * Nl2CT2 lam2n17 ) ( * Nl2CT3 lam2n18 ) ( - 1 ( + ( + ( + Nl2CT2 ( * Nl2arg12 0 ) ) ( * Nl2arg22 1 ) ) ( * Nl2arg32 1 ) ) ) ) 0 ) ( = ( + ( * ( - 1 ) lam2n0 ) ( * ( - 1 ) lam2n1 ) ( * UndefCntr0_arg1 lam2n15 ) ( * Nl2arg11 lam2n16 ) ( * Nl2arg12 lam2n17 ) ( * Nl2arg13 lam2n18 ) ) 0 ) ( = ( + ( * ( - 1 ) lam2n1 ) ( * 1 lam2n2 ) ( * 1 lam2n3 ) ( * 1 lam2n6 ) ( * ( - 1 ) lam2n7 ) ( * 1 lam2n10 ) ( * ( - 1 ) lam2n11 ) ( * ( - 1 ) lam2n12 ) ( * ( - 2 ) lam2n13 ) ( * UndefCntr0_arg2 lam2n15 ) ( * Nl2arg21 lam2n16 ) ( * Nl2arg22 lam2n17 ) ( * Nl2arg23 lam2n18 ) ( - ( + 0 ( * Nl2arg22 1 ) ) ) ) 0 ) ( = ( + ( * 1 lam2n4 ) ( * ( - 1 ) lam2n6 ) ( * 1 lam2n7 ) ( * ( - 2 ) lam2n10 ) ( * ( - 1 ) lam2n12 ) ( * 1 lam2n13 ) ( * ( - 1 ) lam2n14 ) ( * UndefCntr0_arg3 lam2n15 ) ( * Nl2arg31 lam2n16 ) ( * Nl2arg32 lam2n17 ) ( * Nl2arg33 lam2n18 ) ( - ( + 0 ( * Nl2arg32 1 ) ) ) ) 0 ) ( = ( + ( * ( - 1 ) lam2n2 ) ( * ( - 1 ) lam2n4 ) ( * ( - 1 ) lam2n8 ) ( * UndefCntr0_undef17 lam2n15 ) ) 0 ) ( = ( + ( * ( - 1 ) lam2n9 ) ( * UndefCntr0_undef18 lam2n15 ) ) 0 ) ( = ( + ( * ( - 1 ) lam2n5 ) ( * UndefCntr0_undef19 lam2n15 ) ( - ( + 0 ( * Nl2arg12 1 ) ) ) ) 0 ) ( = ( + ( * ( - 1 ) lam2n3 ) ( * UndefCntr0_undef24 lam2n15 ) ) 0 ) ) ))
(assert ( or ( and ( >= lam0n0 0 ) ( >= lam0n1 0 ) ( >= lam0n2 0 ) ( >= lam0n3 0 ) ( >= lam0n4 0 ) ( >= lam0n5 0 ) ( >= lam0n6 0 ) ( >= lam0n7 0 ) ( >= lam0n8 0 ) ( >= lam0n9 0 ) ( >= lam0n10 0 ) ( >= lam0n11 0 ) ( >= lam0n12 0 ) ( >= lam0n13 0 ) ( >= lam0n14 0 ) ( >= lam0n15 0 ) ( >= lam0n16 0 ) ( >= lam0n17 0 ) ( >= lam0n18 0 ) ( > ( + ( * 1 lam0n0 ) ( * 1 lam0n1 ) ( * 1 lam0n2 ) ( * 1 lam0n3 ) ( * 1 lam0n4 ) ( * 1 lam0n5 ) ( * ( - 1 ) lam0n6 ) ( * 50001 lam0n10 ) ( * 50001 lam0n11 ) ( * 50001 lam0n12 ) ( * 50001 lam0n13 ) ( * 50001 lam0n14 ) ( * UndefCntr0_CT lam0n15 ) ( * Nl2CT1 lam0n16 ) ( * Nl2CT2 lam0n17 ) ( * Nl2CT3 lam0n18 ) ( - 1 ) ) 0 ) ( = ( + ( * ( - 1 ) lam0n0 ) ( * ( - 1 ) lam0n1 ) ( * UndefCntr0_arg1 lam0n15 ) ( * Nl2arg11 lam0n16 ) ( * Nl2arg12 lam0n17 ) ( * Nl2arg13 lam0n18 ) ) 0 ) ( = ( + ( * ( - 1 ) lam0n1 ) ( * 1 lam0n2 ) ( * 1 lam0n3 ) ( * 1 lam0n6 ) ( * ( - 1 ) lam0n7 ) ( * 1 lam0n10 ) ( * ( - 1 ) lam0n11 ) ( * ( - 1 ) lam0n12 ) ( * ( - 2 ) lam0n13 ) ( * UndefCntr0_arg2 lam0n15 ) ( * Nl2arg21 lam0n16 ) ( * Nl2arg22 lam0n17 ) ( * Nl2arg23 lam0n18 ) ) 0 ) ( = ( + ( * 1 lam0n4 ) ( * ( - 1 ) lam0n6 ) ( * 1 lam0n7 ) ( * ( - 2 ) lam0n10 ) ( * ( - 1 ) lam0n12 ) ( * 1 lam0n13 ) ( * ( - 1 ) lam0n14 ) ( * UndefCntr0_arg3 lam0n15 ) ( * Nl2arg31 lam0n16 ) ( * Nl2arg32 lam0n17 ) ( * Nl2arg33 lam0n18 ) ) 0 ) ( = ( + ( * ( - 1 ) lam0n2 ) ( * ( - 1 ) lam0n4 ) ( * ( - 1 ) lam0n8 ) ( * UndefCntr0_undef17 lam0n15 ) ) 0 ) ( = ( + ( * ( - 1 ) lam0n9 ) ( * UndefCntr0_undef18 lam0n15 ) ) 0 ) ( = ( + ( * ( - 1 ) lam0n5 ) ( * UndefCntr0_undef19 lam0n15 ) ) 0 ) ( = ( + ( * ( - 1 ) lam0n3 ) ( * UndefCntr0_undef24 lam0n15 ) ) 0 ) ) ( and ( >= lam3n0 0 ) ( >= lam3n1 0 ) ( >= lam3n2 0 ) ( >= lam3n3 0 ) ( >= lam3n4 0 ) ( >= lam3n5 0 ) ( >= lam3n6 0 ) ( >= lam3n7 0 ) ( >= lam3n8 0 ) ( >= lam3n9 0 ) ( >= lam3n10 0 ) ( >= lam3n11 0 ) ( >= lam3n12 0 ) ( >= lam3n13 0 ) ( >= lam3n14 0 ) ( >= lam3n15 0 ) ( >= lam3n16 0 ) ( >= lam3n17 0 ) ( >= lam3n18 0 ) ( > ( + ( * 1 lam3n0 ) ( * 1 lam3n1 ) ( * 1 lam3n2 ) ( * 1 lam3n3 ) ( * 1 lam3n4 ) ( * 1 lam3n5 ) ( * ( - 1 ) lam3n6 ) ( * 50001 lam3n10 ) ( * 50001 lam3n11 ) ( * 50001 lam3n12 ) ( * 50001 lam3n13 ) ( * 50001 lam3n14 ) ( * UndefCntr0_CT lam3n15 ) ( * Nl2CT1 lam3n16 ) ( * Nl2CT2 lam3n17 ) ( * Nl2CT3 lam3n18 ) ( - 1 ( + ( + ( + Nl2CT3 ( * Nl2arg13 0 ) ) ( * Nl2arg23 1 ) ) ( * Nl2arg33 1 ) ) ) ) 0 ) ( = ( + ( * ( - 1 ) lam3n0 ) ( * ( - 1 ) lam3n1 ) ( * UndefCntr0_arg1 lam3n15 ) ( * Nl2arg11 lam3n16 ) ( * Nl2arg12 lam3n17 ) ( * Nl2arg13 lam3n18 ) ) 0 ) ( = ( + ( * ( - 1 ) lam3n1 ) ( * 1 lam3n2 ) ( * 1 lam3n3 ) ( * 1 lam3n6 ) ( * ( - 1 ) lam3n7 ) ( * 1 lam3n10 ) ( * ( - 1 ) lam3n11 ) ( * ( - 1 ) lam3n12 ) ( * ( - 2 ) lam3n13 ) ( * UndefCntr0_arg2 lam3n15 ) ( * Nl2arg21 lam3n16 ) ( * Nl2arg22 lam3n17 ) ( * Nl2arg23 lam3n18 ) ( - ( + 0 ( * Nl2arg23 1 ) ) ) ) 0 ) ( = ( + ( * 1 lam3n4 ) ( * ( - 1 ) lam3n6 ) ( * 1 lam3n7 ) ( * ( - 2 ) lam3n10 ) ( * ( - 1 ) lam3n12 ) ( * 1 lam3n13 ) ( * ( - 1 ) lam3n14 ) ( * UndefCntr0_arg3 lam3n15 ) ( * Nl2arg31 lam3n16 ) ( * Nl2arg32 lam3n17 ) ( * Nl2arg33 lam3n18 ) ( - ( + 0 ( * Nl2arg33 1 ) ) ) ) 0 ) ( = ( + ( * ( - 1 ) lam3n2 ) ( * ( - 1 ) lam3n4 ) ( * ( - 1 ) lam3n8 ) ( * UndefCntr0_undef17 lam3n15 ) ) 0 ) ( = ( + ( * ( - 1 ) lam3n9 ) ( * UndefCntr0_undef18 lam3n15 ) ) 0 ) ( = ( + ( * ( - 1 ) lam3n5 ) ( * UndefCntr0_undef19 lam3n15 ) ( - ( + 0 ( * Nl2arg13 1 ) ) ) ) 0 ) ( = ( + ( * ( - 1 ) lam3n3 ) ( * UndefCntr0_undef24 lam3n15 ) ) 0 ) ) ))
(assert ( and ( <= ( + Nl2CT1 ( * Nl2arg11 FV_arg1_1 ) ( * Nl2arg21 FV_arg2_1 ) ( * Nl2arg31 FV_arg3_1 ) ) 0 ) ( <= ( + Nl2CT2 ( * Nl2arg12 FV_arg1_1 ) ( * Nl2arg22 FV_arg2_1 ) ( * Nl2arg32 FV_arg3_1 ) ) 0 ) ( <= ( + Nl2CT3 ( * Nl2arg13 FV_arg1_1 ) ( * Nl2arg23 FV_arg2_1 ) ( * Nl2arg33 FV_arg3_1 ) ) 0 ) ))
(assert ( or ( not ( = UndefCntr0_arg1 0 ) ) ( not ( = UndefCntr0_arg2 0 ) ) ( not ( = UndefCntr0_arg3 0 ) ) ( not ( = UndefCntr0_undef17 0 ) ) ( not ( = UndefCntr0_undef18 0 ) ) ( not ( = UndefCntr0_undef19 0 ) ) ( not ( = UndefCntr0_undef24 0 ) ) ( = UndefCntr0_CT 0 ) ))
(assert ( or ( and ( = UndefCntr0_arg1 0 ) ( = UndefCntr0_arg2 0 ) ( = UndefCntr0_arg3 0 ) ) ( or ( not ( = UndefCntr0_undef17 0 ) ) ( not ( = UndefCntr0_undef18 0 ) ) ( not ( = UndefCntr0_undef19 0 ) ) ( not ( = UndefCntr0_undef24 0 ) ) ) ))
(assert ( or ( and ( >= lam7n0 0 ) ( >= lam7n1 0 ) ( >= lam7n2 0 ) ( >= lam7n3 0 ) ( >= lam7n4 0 ) ( >= lam7n5 0 ) ( >= lam7n6 0 ) ( >= lam7n7 0 ) ( >= lam7n8 0 ) ( >= lam7n9 0 ) ( >= lam7n10 0 ) ( >= lam7n11 0 ) ( >= lam7n12 0 ) ( >= lam7n13 0 ) ( > ( + ( * 1 lam7n0 ) ( * 1 lam7n1 ) ( * 1 lam7n2 ) ( * ( - 1 ) lam7n3 ) ( * 50001 lam7n6 ) ( * 50001 lam7n7 ) ( * 50001 lam7n8 ) ( * 50001 lam7n9 ) ( * 50001 lam7n10 ) ( * Nl2CT1 lam7n11 ) ( * Nl2CT2 lam7n12 ) ( * Nl2CT3 lam7n13 ) ( - 1 ) ) 0 ) ( = ( + ( * ( - 1 ) lam7n0 ) ( * ( - 1 ) lam7n1 ) ( * Nl2arg11 lam7n11 ) ( * Nl2arg12 lam7n12 ) ( * Nl2arg13 lam7n13 ) ) 0 ) ( = ( + ( * ( - 1 ) lam7n1 ) ( * 1 lam7n3 ) ( * ( - 1 ) lam7n4 ) ( * 1 lam7n6 ) ( * ( - 1 ) lam7n7 ) ( * ( - 1 ) lam7n8 ) ( * ( - 2 ) lam7n9 ) ( * Nl2arg21 lam7n11 ) ( * Nl2arg22 lam7n12 ) ( * Nl2arg23 lam7n13 ) ) 0 ) ( = ( + ( * ( - 1 ) lam7n3 ) ( * 1 lam7n4 ) ( * ( - 2 ) lam7n6 ) ( * ( - 1 ) lam7n8 ) ( * 1 lam7n9 ) ( * ( - 1 ) lam7n10 ) ( * Nl2arg31 lam7n11 ) ( * Nl2arg32 lam7n12 ) ( * Nl2arg33 lam7n13 ) ) 0 ) ( = ( * ( - 1 ) lam7n5 ) 0 ) ( = ( * ( - 1 ) lam7n2 ) 0 ) ) ( and ( and ( >= lam8n0 0 ) ( >= lam8n1 0 ) ( >= lam8n2 0 ) ( >= lam8n3 0 ) ( >= lam8n4 0 ) ( >= lam8n5 0 ) ( >= lam8n6 0 ) ( >= lam8n7 0 ) ( >= lam8n8 0 ) ( >= lam8n9 0 ) ( >= lam8n10 0 ) ( >= lam8n11 0 ) ( >= lam8n12 0 ) ( >= lam8n13 0 ) ( > ( + ( * 1 lam8n0 ) ( * 1 lam8n1 ) ( * 1 lam8n2 ) ( * ( - 1 ) lam8n3 ) ( * 50001 lam8n6 ) ( * 50001 lam8n7 ) ( * 50001 lam8n8 ) ( * 50001 lam8n9 ) ( * 50001 lam8n10 ) ( * Nl2CT1 lam8n11 ) ( * Nl2CT2 lam8n12 ) ( * Nl2CT3 lam8n13 ) ( - 1 ( + ( + 1 0 ) ( * ( - 1 ) UndefDef0undef17_CT ) ) ) ) 0 ) ( = ( + ( * ( - 1 ) lam8n0 ) ( * ( - 1 ) lam8n1 ) ( * Nl2arg11 lam8n11 ) ( * Nl2arg12 lam8n12 ) ( * Nl2arg13 lam8n13 ) ( - ( * UndefDef0undef17_arg1 ( - 1 ) ) ) ) 0 ) ( = ( + ( * ( - 1 ) lam8n1 ) ( * 1 lam8n3 ) ( * ( - 1 ) lam8n4 ) ( * 1 lam8n6 ) ( * ( - 1 ) lam8n7 ) ( * ( - 1 ) lam8n8 ) ( * ( - 2 ) lam8n9 ) ( * Nl2arg21 lam8n11 ) ( * Nl2arg22 lam8n12 ) ( * Nl2arg23 lam8n13 ) ( - ( + 1 ( * UndefDef0undef17_arg2 ( - 1 ) ) ) ) ) 0 ) ( = ( + ( * ( - 1 ) lam8n3 ) ( * 1 lam8n4 ) ( * ( - 2 ) lam8n6 ) ( * ( - 1 ) lam8n8 ) ( * 1 lam8n9 ) ( * ( - 1 ) lam8n10 ) ( * Nl2arg31 lam8n11 ) ( * Nl2arg32 lam8n12 ) ( * Nl2arg33 lam8n13 ) ( - ( * UndefDef0undef17_arg3 ( - 1 ) ) ) ) 0 ) ( = ( * ( - 1 ) lam8n5 ) 0 ) ( = ( * ( - 1 ) lam8n2 ) 0 ) ) ( and ( >= lam9n0 0 ) ( >= lam9n1 0 ) ( >= lam9n2 0 ) ( >= lam9n3 0 ) ( >= lam9n4 0 ) ( >= lam9n5 0 ) ( >= lam9n6 0 ) ( >= lam9n7 0 ) ( >= lam9n8 0 ) ( >= lam9n9 0 ) ( >= lam9n10 0 ) ( >= lam9n11 0 ) ( >= lam9n12 0 ) ( >= lam9n13 0 ) ( > ( + ( * 1 lam9n0 ) ( * 1 lam9n1 ) ( * 1 lam9n2 ) ( * ( - 1 ) lam9n3 ) ( * 50001 lam9n6 ) ( * 50001 lam9n7 ) ( * 50001 lam9n8 ) ( * 50001 lam9n9 ) ( * 50001 lam9n10 ) ( * Nl2CT1 lam9n11 ) ( * Nl2CT2 lam9n12 ) ( * Nl2CT3 lam9n13 ) ( - 1 ( + ( + 1 0 ) ( * ( - 1 ) UndefDef0undef24_CT ) ) ) ) 0 ) ( = ( + ( * ( - 1 ) lam9n0 ) ( * ( - 1 ) lam9n1 ) ( * Nl2arg11 lam9n11 ) ( * Nl2arg12 lam9n12 ) ( * Nl2arg13 lam9n13 ) ( - ( * UndefDef0undef24_arg1 ( - 1 ) ) ) ) 0 ) ( = ( + ( * ( - 1 ) lam9n1 ) ( * 1 lam9n3 ) ( * ( - 1 ) lam9n4 ) ( * 1 lam9n6 ) ( * ( - 1 ) lam9n7 ) ( * ( - 1 ) lam9n8 ) ( * ( - 2 ) lam9n9 ) ( * Nl2arg21 lam9n11 ) ( * Nl2arg22 lam9n12 ) ( * Nl2arg23 lam9n13 ) ( - ( + 1 ( * UndefDef0undef24_arg2 ( - 1 ) ) ) ) ) 0 ) ( = ( + ( * ( - 1 ) lam9n3 ) ( * 1 lam9n4 ) ( * ( - 2 ) lam9n6 ) ( * ( - 1 ) lam9n8 ) ( * 1 lam9n9 ) ( * ( - 1 ) lam9n10 ) ( * Nl2arg31 lam9n11 ) ( * Nl2arg32 lam9n12 ) ( * Nl2arg33 lam9n13 ) ( - ( * UndefDef0undef24_arg3 ( - 1 ) ) ) ) 0 ) ( = ( * ( - 1 ) lam9n5 ) 0 ) ( = ( * ( - 1 ) lam9n2 ) 0 ) ) ( and ( >= lam10n0 0 ) ( >= lam10n1 0 ) ( >= lam10n2 0 ) ( >= lam10n3 0 ) ( >= lam10n4 0 ) ( >= lam10n5 0 ) ( >= lam10n6 0 ) ( >= lam10n7 0 ) ( >= lam10n8 0 ) ( >= lam10n9 0 ) ( >= lam10n10 0 ) ( >= lam10n11 0 ) ( >= lam10n12 0 ) ( >= lam10n13 0 ) ( > ( + ( * 1 lam10n0 ) ( * 1 lam10n1 ) ( * 1 lam10n2 ) ( * ( - 1 ) lam10n3 ) ( * 50001 lam10n6 ) ( * 50001 lam10n7 ) ( * 50001 lam10n8 ) ( * 50001 lam10n9 ) ( * 50001 lam10n10 ) ( * Nl2CT1 lam10n11 ) ( * Nl2CT2 lam10n12 ) ( * Nl2CT3 lam10n13 ) ( - 1 ( + ( + 1 0 ) ( * ( - 1 ) UndefDef0undef17_CT ) ) ) ) 0 ) ( = ( + ( * ( - 1 ) lam10n0 ) ( * ( - 1 ) lam10n1 ) ( * Nl2arg11 lam10n11 ) ( * Nl2arg12 lam10n12 ) ( * Nl2arg13 lam10n13 ) ( - ( * UndefDef0undef17_arg1 ( - 1 ) ) ) ) 0 ) ( = ( + ( * ( - 1 ) lam10n1 ) ( * 1 lam10n3 ) ( * ( - 1 ) lam10n4 ) ( * 1 lam10n6 ) ( * ( - 1 ) lam10n7 ) ( * ( - 1 ) lam10n8 ) ( * ( - 2 ) lam10n9 ) ( * Nl2arg21 lam10n11 ) ( * Nl2arg22 lam10n12 ) ( * Nl2arg23 lam10n13 ) ( - ( * UndefDef0undef17_arg2 ( - 1 ) ) ) ) 0 ) ( = ( + ( * ( - 1 ) lam10n3 ) ( * 1 lam10n4 ) ( * ( - 2 ) lam10n6 ) ( * ( - 1 ) lam10n8 ) ( * 1 lam10n9 ) ( * ( - 1 ) lam10n10 ) ( * Nl2arg31 lam10n11 ) ( * Nl2arg32 lam10n12 ) ( * Nl2arg33 lam10n13 ) ( - ( + 1 ( * UndefDef0undef17_arg3 ( - 1 ) ) ) ) ) 0 ) ( = ( * ( - 1 ) lam10n5 ) 0 ) ( = ( * ( - 1 ) lam10n2 ) 0 ) ) ( and ( >= lam11n0 0 ) ( >= lam11n1 0 ) ( >= lam11n2 0 ) ( >= lam11n3 0 ) ( >= lam11n4 0 ) ( >= lam11n5 0 ) ( >= lam11n6 0 ) ( >= lam11n7 0 ) ( >= lam11n8 0 ) ( >= lam11n9 0 ) ( >= lam11n10 0 ) ( >= lam11n11 0 ) ( >= lam11n12 0 ) ( >= lam11n13 0 ) ( > ( + ( * 1 lam11n0 ) ( * 1 lam11n1 ) ( * 1 lam11n2 ) ( * ( - 1 ) lam11n3 ) ( * 50001 lam11n6 ) ( * 50001 lam11n7 ) ( * 50001 lam11n8 ) ( * 50001 lam11n9 ) ( * 50001 lam11n10 ) ( * Nl2CT1 lam11n11 ) ( * Nl2CT2 lam11n12 ) ( * Nl2CT3 lam11n13 ) ( - 1 ( + 0 ( * ( - 1 ) UndefDef0undef17_CT ) ) ) ) 0 ) ( = ( + ( * ( - 1 ) lam11n0 ) ( * ( - 1 ) lam11n1 ) ( * Nl2arg11 lam11n11 ) ( * Nl2arg12 lam11n12 ) ( * Nl2arg13 lam11n13 ) ( - ( * UndefDef0undef17_arg1 ( - 1 ) ) ) ) 0 ) ( = ( + ( * ( - 1 ) lam11n1 ) ( * 1 lam11n3 ) ( * ( - 1 ) lam11n4 ) ( * 1 lam11n6 ) ( * ( - 1 ) lam11n7 ) ( * ( - 1 ) lam11n8 ) ( * ( - 2 ) lam11n9 ) ( * Nl2arg21 lam11n11 ) ( * Nl2arg22 lam11n12 ) ( * Nl2arg23 lam11n13 ) ( - ( * UndefDef0undef17_arg2 ( - 1 ) ) ) ) 0 ) ( = ( + ( * ( - 1 ) lam11n3 ) ( * 1 lam11n4 ) ( * ( - 2 ) lam11n6 ) ( * ( - 1 ) lam11n8 ) ( * 1 lam11n9 ) ( * ( - 1 ) lam11n10 ) ( * Nl2arg31 lam11n11 ) ( * Nl2arg32 lam11n12 ) ( * Nl2arg33 lam11n13 ) ( - ( * UndefDef0undef17_arg3 ( - 1 ) ) ) ) 0 ) ( = ( * ( - 1 ) lam11n5 ) 0 ) ( = ( * ( - 1 ) lam11n2 ) 0 ) ) ( or ( and ( = UndefCntr0_undef17 0 ) ( = UndefCntr0_undef24 0 ) ) ( and ( >= lam12n0 0 ) ( >= lam12n1 0 ) ( >= lam12n2 0 ) ( >= lam12n3 0 ) ( >= lam12n4 0 ) ( >= lam12n5 0 ) ( >= lam12n6 0 ) ( >= lam12n7 0 ) ( >= lam12n8 0 ) ( >= lam12n9 0 ) ( >= lam12n10 0 ) ( >= lam12n11 0 ) ( >= lam12n12 0 ) ( >= lam12n13 0 ) ( > ( + ( * 1 lam12n0 ) ( * 1 lam12n1 ) ( * 1 lam12n2 ) ( * ( - 1 ) lam12n3 ) ( * 50001 lam12n6 ) ( * 50001 lam12n7 ) ( * 50001 lam12n8 ) ( * 50001 lam12n9 ) ( * 50001 lam12n10 ) ( * Nl2CT1 lam12n11 ) ( * Nl2CT2 lam12n12 ) ( * Nl2CT3 lam12n13 ) ( - 1 ( + ( + ( + ( + ( + ( + ( + UndefCntr0_CT 0 ) 0 ) 0 ) ( * UndefCntr0_undef17 UndefDef0undef17_CT ) ) 0 ) 0 ) ( * UndefCntr0_undef24 UndefDef0undef24_CT ) ) ) ) 0 ) ( = ( + ( * ( - 1 ) lam12n0 ) ( * ( - 1 ) lam12n1 ) ( * Nl2arg11 lam12n11 ) ( * Nl2arg12 lam12n12 ) ( * Nl2arg13 lam12n13 ) ( - ( + ( + UndefCntr0_arg1 ( * UndefDef0undef17_arg1 UndefCntr0_undef17 ) ) ( * UndefDef0undef24_arg1 UndefCntr0_undef24 ) ) ) ) 0 ) ( = ( + ( * ( - 1 ) lam12n1 ) ( * 1 lam12n3 ) ( * ( - 1 ) lam12n4 ) ( * 1 lam12n6 ) ( * ( - 1 ) lam12n7 ) ( * ( - 1 ) lam12n8 ) ( * ( - 2 ) lam12n9 ) ( * Nl2arg21 lam12n11 ) ( * Nl2arg22 lam12n12 ) ( * Nl2arg23 lam12n13 ) ( - ( + ( + UndefCntr0_arg2 ( * UndefDef0undef17_arg2 UndefCntr0_undef17 ) ) ( * UndefDef0undef24_arg2 UndefCntr0_undef24 ) ) ) ) 0 ) ( = ( + ( * ( - 1 ) lam12n3 ) ( * 1 lam12n4 ) ( * ( - 2 ) lam12n6 ) ( * ( - 1 ) lam12n8 ) ( * 1 lam12n9 ) ( * ( - 1 ) lam12n10 ) ( * Nl2arg31 lam12n11 ) ( * Nl2arg32 lam12n12 ) ( * Nl2arg33 lam12n13 ) ( - ( + ( + UndefCntr0_arg3 ( * UndefDef0undef17_arg3 UndefCntr0_undef17 ) ) ( * UndefDef0undef24_arg3 UndefCntr0_undef24 ) ) ) ) 0 ) ( = ( + ( * ( - 1 ) lam12n5 ) ( - UndefCntr0_undef18 ) ) 0 ) ( = ( + ( * ( - 1 ) lam12n2 ) ( - UndefCntr0_undef19 ) ) 0 ) ) ) ) ))
(assert ( or ( = UndefCntr0_undef18 0 ) ( and ( and ( = UndefCntr0_arg1 0 ) ( = UndefCntr0_arg2 0 ) ( = UndefCntr0_arg3 0 ) ( = UndefCntr0_undef17 0 ) ( = UndefCntr0_undef24 0 ) ( = UndefCntr0_undef19 0 ) ) ( or ( and ( <= ( * ( - 1 ) FV_undef18_0 ) 0 ) ( <= ( + UndefCntr0_CT ( * UndefCntr0_undef19 FV_undef19_0 ) ( * UndefCntr0_undef18 FV_undef18_0 ) ( * UndefCntr0_arg1 FV_arg1_0 ) ( * UndefCntr0_arg2 FV_arg2_0 ) ( * UndefCntr0_arg3 FV_arg3_0 ) ( * UndefCntr0_undef17 FV_undef17_0 ) ( * UndefCntr0_undef24 FV_undef24_0 ) ) 0 ) ) ( and ( <= ( * ( - 1 ) FV_undef18_0 ) 0 ) ( <= ( + UndefCntr0_CT ( * UndefCntr0_undef19 FV_undef19_0 ) ( * UndefCntr0_undef18 FV_undef18_0 ) ( * UndefCntr0_arg1 FV_arg1_0 ) ( * UndefCntr0_arg2 FV_arg2_0 ) ( * UndefCntr0_arg3 FV_arg3_0 ) ( * UndefCntr0_undef17 FV_undef17_0 ) ( * UndefCntr0_undef24 FV_undef24_0 ) ) 0 ) ) ) ) ))
(assert ( or ( = UndefCntr0_undef19 0 ) ( and ( and ( = UndefCntr0_arg1 0 ) ( = UndefCntr0_arg2 0 ) ( = UndefCntr0_arg3 0 ) ( = UndefCntr0_undef17 0 ) ( = UndefCntr0_undef24 0 ) ( = UndefCntr0_undef18 0 ) ) ( or ( and ( <= ( + 1 ( * ( - 1 ) FV_undef19_0 ) ) 0 ) ( <= ( + UndefCntr0_CT ( * UndefCntr0_undef19 FV_undef19_0 ) ( * UndefCntr0_undef18 FV_undef18_0 ) ( * UndefCntr0_arg1 FV_arg1_0 ) ( * UndefCntr0_arg2 FV_arg2_0 ) ( * UndefCntr0_arg3 FV_arg3_0 ) ( * UndefCntr0_undef17 FV_undef17_0 ) ( * UndefCntr0_undef24 FV_undef24_0 ) ) 0 ) ) ( and ( <= ( + 1 ( * ( - 1 ) FV_undef19_0 ) ) 0 ) ( <= ( + UndefCntr0_CT ( * UndefCntr0_undef19 FV_undef19_0 ) ( * UndefCntr0_undef18 FV_undef18_0 ) ( * UndefCntr0_arg1 FV_arg1_0 ) ( * UndefCntr0_arg2 FV_arg2_0 ) ( * UndefCntr0_arg3 FV_arg3_0 ) ( * UndefCntr0_undef17 FV_undef17_0 ) ( * UndefCntr0_undef24 FV_undef24_0 ) ) 0 ) ) ) ) ))
(assert ( or ( and ( >= lam13n0 0 ) ( >= lam13n1 0 ) ( >= lam13n2 0 ) ( >= lam13n3 0 ) ( >= lam13n4 0 ) ( >= lam13n5 0 ) ( >= lam13n6 0 ) ( >= lam13n7 0 ) ( > ( + ( * 1 lam13n0 ) ( * 50001 lam13n1 ) ( * 50001 lam13n2 ) ( * 50001 lam13n3 ) ( * ( - 50000 ) lam13n4 ) ( * Nl2CT1 lam13n5 ) ( * Nl2CT2 lam13n6 ) ( * Nl2CT3 lam13n7 ) ( - 1 ) ) 0 ) ( = ( + ( * ( - 1 ) lam13n0 ) ( * Nl2arg11 lam13n5 ) ( * Nl2arg12 lam13n6 ) ( * Nl2arg13 lam13n7 ) ) 0 ) ( = ( + ( * ( - 1 ) lam13n1 ) ( * ( - 1 ) lam13n2 ) ( * ( - 2 ) lam13n3 ) ( * ( - 1 ) lam13n4 ) ( * Nl2arg21 lam13n5 ) ( * Nl2arg22 lam13n6 ) ( * Nl2arg23 lam13n7 ) ) 0 ) ( = ( + ( * ( - 1 ) lam13n2 ) ( * 1 lam13n3 ) ( * 2 lam13n4 ) ( * Nl2arg31 lam13n5 ) ( * Nl2arg32 lam13n6 ) ( * Nl2arg33 lam13n7 ) ) 0 ) ) ( and ( >= lam14n0 0 ) ( >= lam14n1 0 ) ( >= lam14n2 0 ) ( >= lam14n3 0 ) ( >= lam14n4 0 ) ( >= lam14n5 0 ) ( >= lam14n6 0 ) ( >= lam14n7 0 ) ( >= lam14n8 0 ) ( > ( + ( * 1 lam14n0 ) ( * 50001 lam14n1 ) ( * 50001 lam14n2 ) ( * ( - 50000 ) lam14n3 ) ( * ( - 50000 ) lam14n4 ) ( * ( - 50000 ) lam14n5 ) ( * Nl2CT1 lam14n6 ) ( * Nl2CT2 lam14n7 ) ( * Nl2CT3 lam14n8 ) ( - 1 ) ) 0 ) ( = ( + ( * ( - 1 ) lam14n0 ) ( * Nl2arg11 lam14n6 ) ( * Nl2arg12 lam14n7 ) ( * Nl2arg13 lam14n8 ) ) 0 ) ( = ( + ( * ( - 1 ) lam14n1 ) ( * ( - 2 ) lam14n2 ) ( * 1 lam14n3 ) ( * ( - 1 ) lam14n4 ) ( * Nl2arg21 lam14n6 ) ( * Nl2arg22 lam14n7 ) ( * Nl2arg23 lam14n8 ) ) 0 ) ( = ( + ( * 1 lam14n2 ) ( * 1 lam14n3 ) ( * 2 lam14n4 ) ( * 1 lam14n5 ) ( * Nl2arg31 lam14n6 ) ( * Nl2arg32 lam14n7 ) ( * Nl2arg33 lam14n8 ) ) 0 ) ) ( and ( >= lam15n0 0 ) ( >= lam15n1 0 ) ( >= lam15n2 0 ) ( >= lam15n3 0 ) ( >= lam15n4 0 ) ( >= lam15n5 0 ) ( >= lam15n6 0 ) ( > ( + ( * 1 lam15n0 ) ( * ( - 50000 ) lam15n1 ) ( * ( - 50000 ) lam15n2 ) ( * ( - 50000 ) lam15n3 ) ( * Nl2CT1 lam15n4 ) ( * Nl2CT2 lam15n5 ) ( * Nl2CT3 lam15n6 ) ( - 1 ) ) 0 ) ( = ( + ( * ( - 1 ) lam15n0 ) ( * Nl2arg11 lam15n4 ) ( * Nl2arg12 lam15n5 ) ( * Nl2arg13 lam15n6 ) ) 0 ) ( = ( + ( * 1 lam15n1 ) ( * ( - 1 ) lam15n2 ) ( * Nl2arg21 lam15n4 ) ( * Nl2arg22 lam15n5 ) ( * Nl2arg23 lam15n6 ) ) 0 ) ( = ( + ( * 2 lam15n2 ) ( * 1 lam15n3 ) ( * Nl2arg31 lam15n4 ) ( * Nl2arg32 lam15n5 ) ( * Nl2arg33 lam15n6 ) ) 0 ) ) ( and ( >= lam16n0 0 ) ( >= lam16n1 0 ) ( >= lam16n2 0 ) ( >= lam16n3 0 ) ( >= lam16n4 0 ) ( >= lam16n5 0 ) ( >= lam16n6 0 ) ( >= lam16n7 0 ) ( >= lam16n8 0 ) ( > ( + ( * 1 lam16n0 ) ( * 50001 lam16n1 ) ( * 50001 lam16n2 ) ( * 50001 lam16n3 ) ( * 50001 lam16n4 ) ( * ( - 50000 ) lam16n5 ) ( * Nl2CT1 lam16n6 ) ( * Nl2CT2 lam16n7 ) ( * Nl2CT3 lam16n8 ) ( - 1 ) ) 0 ) ( = ( + ( * ( - 1 ) lam16n0 ) ( * Nl2arg11 lam16n6 ) ( * Nl2arg12 lam16n7 ) ( * Nl2arg13 lam16n8 ) ) 0 ) ( = ( + ( * 1 lam16n1 ) ( * ( - 1 ) lam16n2 ) ( * ( - 1 ) lam16n3 ) ( * 2 lam16n5 ) ( * Nl2arg21 lam16n6 ) ( * Nl2arg22 lam16n7 ) ( * Nl2arg23 lam16n8 ) ) 0 ) ( = ( + ( * ( - 2 ) lam16n1 ) ( * ( - 1 ) lam16n3 ) ( * ( - 1 ) lam16n4 ) ( * ( - 1 ) lam16n5 ) ( * Nl2arg31 lam16n6 ) ( * Nl2arg32 lam16n7 ) ( * Nl2arg33 lam16n8 ) ) 0 ) ) ( and ( >= lam17n0 0 ) ( >= lam17n1 0 ) ( >= lam17n2 0 ) ( >= lam17n3 0 ) ( >= lam17n4 0 ) ( >= lam17n5 0 ) ( >= lam17n6 0 ) ( > ( + ( * 1 lam17n0 ) ( * 50001 lam17n1 ) ( * ( - 50000 ) lam17n2 ) ( * ( - 50000 ) lam17n3 ) ( * Nl2CT1 lam17n4 ) ( * Nl2CT2 lam17n5 ) ( * Nl2CT3 lam17n6 ) ( - 1 ) ) 0 ) ( = ( + ( * ( - 1 ) lam17n0 ) ( * Nl2arg11 lam17n4 ) ( * Nl2arg12 lam17n5 ) ( * Nl2arg13 lam17n6 ) ) 0 ) ( = ( + ( * 1 lam17n1 ) ( * 1 lam17n2 ) ( * 2 lam17n3 ) ( * Nl2arg21 lam17n4 ) ( * Nl2arg22 lam17n5 ) ( * Nl2arg23 lam17n6 ) ) 0 ) ( = ( + ( * ( - 2 ) lam17n1 ) ( * ( - 1 ) lam17n3 ) ( * Nl2arg31 lam17n4 ) ( * Nl2arg32 lam17n5 ) ( * Nl2arg33 lam17n6 ) ) 0 ) ) ( and ( >= lam18n0 0 ) ( >= lam18n1 0 ) ( >= lam18n2 0 ) ( >= lam18n3 0 ) ( >= lam18n4 0 ) ( >= lam18n5 0 ) ( >= lam18n6 0 ) ( >= lam18n7 0 ) ( > ( + ( * 50001 lam18n1 ) ( * 50001 lam18n2 ) ( * 50001 lam18n3 ) ( * ( - 50000 ) lam18n4 ) ( * Nl2CT1 lam18n5 ) ( * Nl2CT2 lam18n6 ) ( * Nl2CT3 lam18n7 ) ( - 1 ) ) 0 ) ( = ( + ( * 1 lam18n0 ) ( * Nl2arg11 lam18n5 ) ( * Nl2arg12 lam18n6 ) ( * Nl2arg13 lam18n7 ) ) 0 ) ( = ( + ( * ( - 1 ) lam18n1 ) ( * ( - 1 ) lam18n2 ) ( * ( - 2 ) lam18n3 ) ( * ( - 1 ) lam18n4 ) ( * Nl2arg21 lam18n5 ) ( * Nl2arg22 lam18n6 ) ( * Nl2arg23 lam18n7 ) ) 0 ) ( = ( + ( * ( - 1 ) lam18n2 ) ( * 1 lam18n3 ) ( * 2 lam18n4 ) ( * Nl2arg31 lam18n5 ) ( * Nl2arg32 lam18n6 ) ( * Nl2arg33 lam18n7 ) ) 0 ) ) ( and ( >= lam19n0 0 ) ( >= lam19n1 0 ) ( >= lam19n2 0 ) ( >= lam19n3 0 ) ( >= lam19n4 0 ) ( >= lam19n5 0 ) ( >= lam19n6 0 ) ( >= lam19n7 0 ) ( >= lam19n8 0 ) ( > ( + ( * 50001 lam19n1 ) ( * 50001 lam19n2 ) ( * ( - 50000 ) lam19n3 ) ( * ( - 50000 ) lam19n4 ) ( * ( - 50000 ) lam19n5 ) ( * Nl2CT1 lam19n6 ) ( * Nl2CT2 lam19n7 ) ( * Nl2CT3 lam19n8 ) ( - 1 ) ) 0 ) ( = ( + ( * 1 lam19n0 ) ( * Nl2arg11 lam19n6 ) ( * Nl2arg12 lam19n7 ) ( * Nl2arg13 lam19n8 ) ) 0 ) ( = ( + ( * ( - 1 ) lam19n1 ) ( * ( - 2 ) lam19n2 ) ( * 1 lam19n3 ) ( * ( - 1 ) lam19n4 ) ( * Nl2arg21 lam19n6 ) ( * Nl2arg22 lam19n7 ) ( * Nl2arg23 lam19n8 ) ) 0 ) ( = ( + ( * 1 lam19n2 ) ( * 1 lam19n3 ) ( * 2 lam19n4 ) ( * 1 lam19n5 ) ( * Nl2arg31 lam19n6 ) ( * Nl2arg32 lam19n7 ) ( * Nl2arg33 lam19n8 ) ) 0 ) ) ( and ( >= lam20n0 0 ) ( >= lam20n1 0 ) ( >= lam20n2 0 ) ( >= lam20n3 0 ) ( >= lam20n4 0 ) ( >= lam20n5 0 ) ( >= lam20n6 0 ) ( > ( + ( * ( - 50000 ) lam20n1 ) ( * ( - 50000 ) lam20n2 ) ( * ( - 50000 ) lam20n3 ) ( * Nl2CT1 lam20n4 ) ( * Nl2CT2 lam20n5 ) ( * Nl2CT3 lam20n6 ) ( - 1 ) ) 0 ) ( = ( + ( * 1 lam20n0 ) ( * Nl2arg11 lam20n4 ) ( * Nl2arg12 lam20n5 ) ( * Nl2arg13 lam20n6 ) ) 0 ) ( = ( + ( * 1 lam20n1 ) ( * ( - 1 ) lam20n2 ) ( * Nl2arg21 lam20n4 ) ( * Nl2arg22 lam20n5 ) ( * Nl2arg23 lam20n6 ) ) 0 ) ( = ( + ( * 2 lam20n2 ) ( * 1 lam20n3 ) ( * Nl2arg31 lam20n4 ) ( * Nl2arg32 lam20n5 ) ( * Nl2arg33 lam20n6 ) ) 0 ) ) ( and ( >= lam21n0 0 ) ( >= lam21n1 0 ) ( >= lam21n2 0 ) ( >= lam21n3 0 ) ( >= lam21n4 0 ) ( >= lam21n5 0 ) ( >= lam21n6 0 ) ( >= lam21n7 0 ) ( > ( + ( * 50001 lam21n1 ) ( * 50001 lam21n2 ) ( * 50001 lam21n3 ) ( * 50001 lam21n4 ) ( * Nl2CT1 lam21n5 ) ( * Nl2CT2 lam21n6 ) ( * Nl2CT3 lam21n7 ) ( - 1 ) ) 0 ) ( = ( + ( * 1 lam21n0 ) ( * Nl2arg11 lam21n5 ) ( * Nl2arg12 lam21n6 ) ( * Nl2arg13 lam21n7 ) ) 0 ) ( = ( + ( * 1 lam21n1 ) ( * ( - 1 ) lam21n2 ) ( * ( - 1 ) lam21n3 ) ( * Nl2arg21 lam21n5 ) ( * Nl2arg22 lam21n6 ) ( * Nl2arg23 lam21n7 ) ) 0 ) ( = ( + ( * ( - 2 ) lam21n1 ) ( * ( - 1 ) lam21n3 ) ( * ( - 1 ) lam21n4 ) ( * Nl2arg31 lam21n5 ) ( * Nl2arg32 lam21n6 ) ( * Nl2arg33 lam21n7 ) ) 0 ) ) ( and ( >= lam22n0 0 ) ( >= lam22n1 0 ) ( >= lam22n2 0 ) ( >= lam22n3 0 ) ( >= lam22n4 0 ) ( >= lam22n5 0 ) ( >= lam22n6 0 ) ( > ( + ( * 50001 lam22n1 ) ( * ( - 50000 ) lam22n2 ) ( * ( - 50000 ) lam22n3 ) ( * Nl2CT1 lam22n4 ) ( * Nl2CT2 lam22n5 ) ( * Nl2CT3 lam22n6 ) ( - 1 ) ) 0 ) ( = ( + ( * 1 lam22n0 ) ( * Nl2arg11 lam22n4 ) ( * Nl2arg12 lam22n5 ) ( * Nl2arg13 lam22n6 ) ) 0 ) ( = ( + ( * 1 lam22n1 ) ( * 1 lam22n2 ) ( * 2 lam22n3 ) ( * Nl2arg21 lam22n4 ) ( * Nl2arg22 lam22n5 ) ( * Nl2arg23 lam22n6 ) ) 0 ) ( = ( + ( * ( - 2 ) lam22n1 ) ( * ( - 1 ) lam22n3 ) ( * Nl2arg31 lam22n4 ) ( * Nl2arg32 lam22n5 ) ( * Nl2arg33 lam22n6 ) ) 0 ) ) ))
(assert ( and ( and ( <= ( + Nl2CT1 ( * Nl2arg11 FV_arg1_2 ) ( * Nl2arg21 FV_arg2_2 ) ( * Nl2arg31 FV_arg3_2 ) ) 0 ) ( <= ( + Nl2CT2 ( * Nl2arg12 FV_arg1_2 ) ( * Nl2arg22 FV_arg2_2 ) ( * Nl2arg32 FV_arg3_2 ) ) 0 ) ( <= ( + Nl2CT3 ( * Nl2arg13 FV_arg1_2 ) ( * Nl2arg23 FV_arg2_2 ) ( * Nl2arg33 FV_arg3_2 ) ) 0 ) ) ( and ( <= ( + 1 ( * ( - 1 ) FV_arg1_2 ) ) 0 ) ( <= ( + 1 ( * ( - 1 ) FV_arg1_2 ) ( * ( - 1 ) FV_arg2_2 ) ) 0 ) ( <= ( + 1 FV_arg2_2 ( * ( - 1 ) FV_undef17_2 ) ) 0 ) ( <= ( + 1 FV_arg2_2 ( * ( - 1 ) FV_undef24_2 ) ) 0 ) ( <= ( + 1 ( * ( - 1 ) FV_undef17_2 ) FV_arg3_2 ) 0 ) ( <= ( + 1 ( * ( - 1 ) FV_undef19_2 ) ) 0 ) ( <= ( + ( - 1 ) FV_arg2_2 ( * ( - 1 ) FV_arg3_2 ) ) 0 ) ( <= ( + ( * ( - 1 ) FV_arg2_2 ) FV_arg3_2 ) 0 ) ( <= ( * ( - 1 ) FV_undef17_2 ) 0 ) ( <= ( * ( - 1 ) FV_undef18_2 ) 0 ) ( <= ( + 50001 FV_arg2_2 ( * ( - 2 ) FV_arg3_2 ) ) 0 ) ( <= ( + 50001 ( * ( - 1 ) FV_arg2_2 ) ) 0 ) ( <= ( + 50001 ( * ( - 1 ) FV_arg2_2 ) ( * ( - 1 ) FV_arg3_2 ) ) 0 ) ( <= ( + 50001 ( * ( - 2 ) FV_arg2_2 ) FV_arg3_2 ) 0 ) ( <= ( + 50001 ( * ( - 1 ) FV_arg3_2 ) ) 0 ) ) ))
(check-sat)
(exit)
